c instance by G2
c solution = 11110001001
c Known solution cost is 430 
p cnf 11 30
w 79 50 12 1 42 17 95 1 39 66 28
-6 4 -1 0
9 3 -8 0
9 -5 -1 0
11 5 10 0
-5 7 8 0
6 8 -2 0
-1 -9 11 0
-1 3 -11 0
6 8 -1 0
-5 6 3 0
10 -7 -11 0
-10 2 -5 0
-10 9 5 0
-4 6 1 0
-7 -10 -5 0
-3 -6 -1 0
1 -5 11 0
8 -5 -11 0
-3 -7 5 0
10 -9 6 0
-1 -10 -5 0
10 -4 2 0
-10 -1 2 0
-5 -8 7 0
2 1 -6 0
-7 5 2 0
8 -1 -7 0
8 -3 -4 0
10 -2 3 0
10 9 4 0
